10J3M/DAT/10J3MULL-19.dat
10 3
21.233 21.233
6.7506 6.7506
0.8659 0.8659
28.8204 28.8204
15.8865 15.8865
22.8972 22.8972
26.0917 26.0917
13.0017 13.0017
40.6577 40.6577
49.0872 49.0872
75.0973