10J3M/SOL/10J3MULL-19.sol
solution status: optimal solution found
objective value:                              84.7086
x#1#2                                               1 	(obj:0)
x#2#1                                0.99979533360624 	(obj:0)
x#3#1                                               1 	(obj:0)
x#4#3                                               1 	(obj:0)
x#5#2                               0.821259650685104 	(obj:0)
x#5#3                               0.178740349314896 	(obj:0)
x#6#1                                               1 	(obj:0)
x#7#1                               0.934161374673139 	(obj:0)
x#7#2                              0.0658386253268609 	(obj:0)
x#8#3                                               1 	(obj:0)
x#9#1                                               1 	(obj:0)
x#10#3                                              1 	(obj:0)
z                                             84.7086 	(obj:1)
